<number of tasks>
50

<cycle time>
1000

<order strength>
0.602


<task times>
1 303
2 442
3 709
4 444
5 570
6 478
7 344
8 535
9 557
10 342
11 634
12 470
13 450
14 416
15 499
16 485
17 389
18 518
19 669
20 506
21 547
22 480
23 440
24 546
25 410
26 215
27 705
28 675
29 522
30 412
31 555
32 396
33 403
34 621
35 613
36 599
37 442
38 347
39 568
40 518
41 376
42 454
43 665
44 207
45 467
46 658
47 596
48 459
49 378
50 309

<precedence relations>
1,5
2,6
2,7
2,8
3,6
3,7
3,8
4,6
4,7
4,8
5,11
6,9
6,10
6,11
6,12
6,13
7,9
7,10
7,11
7,12
7,13
8,10
8,11
8,12
8,13
9,14
9,16
9,17
9,18
9,19
10,15
10,17
10,18
11,16
12,16
12,18
12,19
13,16
13,17
13,18
13,19
14,20
15,22
16,21
16,23
16,24
17,23
17,24
18,23
18,24
19,23
19,24
20,27
21,25
22,26
23,27
23,28
24,27
24,28
25,32
26,31
27,29
27,30
27,32
27,33
28,33
29,35
30,36
31,34
32,37
32,38
32,39
33,38
33,39
34,41
35,40
36,42
37,43
37,46
37,50
38,46
40,44
41,46
42,45
43,47
43,48
44,50
45,49

<end>
